NAME: Random_95_5
ELLAPSED_TIME_(ms): 1
TOUR_SIZE: 3133.8794
TOUR_SECTION
0
33
40
50
24
79
93
67
10
37
90
47
18
69
16
2
42
66
21
9
94
75
39
57
55
11
70
25
58
19
43
44
60
7
6
38
4
14
78
53
45
12
26
71
77
23
56
32
36
80
8
88
30
5
46
54
91
62
84
51
49
29
27
28
22
1
76
20
89
35
65
73
68
83
63
81
15
41
52
86
59
17
48
92
34
74
13
61
3
31
72
87
85
82
64
0
EOF
